c User generated cnf file
p cnf 15 18
-12 11 3 0 
-4 1 4 0 
7 -7 9 0 
11 3 -13 0 
11 -11 4 0 
1 10 -14 0 
-13 8 12 0 
13 -13 1 0 
-14 12 9 0 
14 5 -11 0 
5 11 -12 0 
6 2 -13 0 
6 10 -5 0 
4 -4 8 0 
-9 2 6 0 
-2 1 9 0 
9 5 -15 0 
13 -1 8 0 
